NAME : hola//resumen/Partial_Problem_1_2.txt
COMMENT : 
TYPE : TSP
DIMENSION : 9
EDGE_WEIGHT_TYPE : GEOM
NODE_COORD_SECTION
1	30	40
2	21	47
3	30	48
4	32	39
5	31	32
6	25	32
7	20	26
8	17	33
9	12	42
EOF
